132
1000000
69476
185360
202623
47994
89686
62567
181134
134530
4699
184229
221439
32059
111836
3347
153627
155990
112501
10672
225682
35773
191851
146275
35705
9433
236678
54391
241327
106592
209520
122218
126
146314
47330
180021
180861
5847
238391
60662
106599
220805
107114
72695
106156
73273
219050
225204
8313
199248
88403
113360
88492
121080
9035
128693
72367
104528
205087
59077
144335
225959
154025
136984
83995
219030
116244
93293
51344
136034
6357
232583
24276
34279
224450
2714
45446
96864
173627
164228
10727
11314
55680
164116
56281
179986
134651
51198
183410
207818
165666
205846
13917
238364
1800
53694
222169
141955
222683
95419
212380
105387
104605
1748
89017
95398
10054
15285
217156
195169
174298
29593
103244
118743
201727
52905
27311
123171
103720
123342
80633
65134
148510
143709
86837
38671
222634
24429
155315
151150
28861
88573
107301
3884
